c uprop, v00.0, 
c reading from data/prog522.c.cnf
c done reading: 0.003046
p cnf 115 481
-62 -81 0
62 81 0
-59 -67 0
59 67 0
-66 67 0
66 -67 0
-67 -73 0
67 73 0
-62 -66 71 0
62 -71 0
66 -71 0
62 66 -71 0
-71 -79 0
62 -71 -79 0
66 -71 -79 0
-62 71 79 0
-66 71 79 0
62 66 -79 0
-67 -71 87 0
67 -87 0
71 -87 0
67 71 -87 0
-87 -92 0
67 -87 -92 0
71 -87 -92 0
-67 87 92 0
-71 87 92 0
67 71 -92 0
65 -87 0
-65 87 0
79 -83 0
-79 83 0
-79 -89 0
79 89 0
-62 69 -92 0
69 -83 -92 0
-62 69 -83 0
62 -69 92 0
-69 83 92 0
62 -69 83 0
-61 -69 92 0
-61 62 -69 0
-61 -69 83 0
61 69 -92 0
61 -62 69 0
61 69 -83 0
61 -62 -83 -92 0
-61 62 83 92 0
56 -65 -67 0
56 -65 -69 0
56 -67 -69 0
-56 65 67 0
-56 65 69 0
-56 67 69 0
-52 -56 65 0
-52 -56 67 0
-52 -56 69 0
52 56 -65 0
52 56 -67 0
52 56 -69 0
52 -65 -67 -69 0
-52 65 67 69 0
49 -56 0
-49 56 0
61 -75 0
-61 75 0
-61 -86 0
61 86 0
-52 -62 90 0
-52 -75 90 0
-62 -75 90 0
52 62 -90 0
52 75 -90 0
62 75 -90 0
-47 52 -90 0
-47 62 -90 0
-47 75 -90 0
47 -52 90 0
47 -62 90 0
47 -75 90 0
47 -52 -62 -75 0
-47 52 62 75 0
-49 64 -67 0
-49 64 -90 0
64 -67 -90 0
49 -64 67 0
49 -64 90 0
-64 67 90 0
-45 49 -64 0
-45 -64 67 0
-45 -64 90 0
45 -49 64 0
45 64 -67 0
45 64 -90 0
45 -49 -67 -90 0
-45 49 67 90 0
42 -64 0
-42 64 0
47 -57 0
-47 57 0
-47 -54 0
47 54 0
-45 50 -62 0
-45 50 -57 0
50 -57 -62 0
45 -50 62 0
45 -50 57 0
-50 57 62 0
-40 45 -50 0
-40 -50 62 0
-40 -50 57 0
40 -45 50 0
40 50 -62 0
40 50 -57 0
40 -45 -57 -62 0
-40 45 57 62 0
-42 -67 0
-42 -50 0
-50 -67 0
-42 93 0
-67 93 0
-50 93 0
-42 -50 -67 93 0
42 50 67 -93 0
-62 -94 0
62 94 0
-73 -95 0
73 95 0
-89 -96 0
89 96 0
-86 -97 0
86 97 0
-54 -63 0
54 63 0
-40 -84 0
40 84 0
-70 -93 0
70 93 0
-53 -98 0
-98 -99 0
53 98 99 0
53 -77 99 0
-53 -77 -99 0
-53 77 99 0
53 77 -99 0
98 -100 0
-76 -100 0
76 -98 100 0
76 -98 -102 0
-76 98 -102 0
76 98 102 0
-76 -98 102 0
100 -105 0
-101 -105 0
-100 101 105 0
-100 101 -109 0
100 -101 -109 0
100 101 109 0
-100 -101 109 0
105 -113 0
-103 -113 0
103 -105 113 0
103 -104 -105 0
-103 -104 105 0
103 104 105 0
-103 104 -105 0
-43 113 0
-43 -106 0
43 106 -113 0
106 -107 -113 0
-106 -107 113 0
106 107 113 0
-106 107 -113 0
43 -108 0
-108 -110 0
-43 108 110 0
-43 110 -111 0
43 -110 -111 0
43 110 111 0
-43 -110 111 0
108 -112 0
-112 -114 0
-108 112 114 0
-108 114 -115 0
108 -114 -115 0
108 114 115 0
-108 -114 115 0
-39 76 0
-39 53 0
39 -53 -76 0
-38 -53 -76 0
-38 53 76 0
38 53 -76 0
38 -53 76 0
37 -99 -101 0
37 -39 -101 0
37 -39 -99 0
-37 99 101 0
-37 39 101 0
-37 39 99 0
-36 -37 101 0
-36 -37 99 0
-36 -37 39 0
36 37 -101 0
36 37 -99 0
36 37 -39 0
36 -39 -99 -101 0
-36 39 99 101 0
35 -76 -103 0
35 -37 -103 0
35 -37 -76 0
-35 76 103 0
-35 37 103 0
-35 37 76 0
-34 -35 103 0
-34 -35 76 0
-34 -35 37 0
34 35 -103 0
34 35 -76 0
34 35 -37 0
34 -37 -76 -103 0
-34 37 76 103 0
33 -101 -106 0
33 -35 -106 0
33 -35 -101 0
-33 101 106 0
-33 35 106 0
-33 35 101 0
-32 -33 106 0
-32 -33 101 0
-32 -33 35 0
32 33 -106 0
32 33 -101 0
32 33 -35 0
32 -35 -101 -106 0
-32 35 101 106 0
31 -103 -110 0
31 -33 -110 0
31 -33 -103 0
-31 103 110 0
-31 33 110 0
-31 33 103 0
-30 -31 110 0
-30 -31 103 0
-30 -31 33 0
30 31 -110 0
30 31 -103 0
30 31 -33 0
30 -33 -103 -110 0
-30 33 103 110 0
80 -106 -114 0
-31 80 -114 0
-31 80 -106 0
-80 106 114 0
31 -80 114 0
31 -80 106 0
-29 -80 114 0
-29 -80 106 0
-29 31 -80 0
29 80 -114 0
29 80 -106 0
29 -31 80 0
29 -31 -106 -114 0
-29 31 106 114 0
-58 110 0
-58 80 0
58 -80 -110 0
-28 -80 -110 0
-28 80 110 0
28 80 -110 0
28 -80 110 0
-27 114 0
-27 58 0
27 -58 -114 0
-26 -58 -114 0
-26 58 114 0
26 58 -114 0
26 -58 114 0
-25 34 0
-25 53 0
25 -34 -53 0
-24 -34 -53 0
-24 34 53 0
24 -34 53 0
24 34 -53 0
23 -32 -99 0
23 -25 -32 0
23 -25 -99 0
-23 32 99 0
-23 25 32 0
-23 25 99 0
-22 -23 32 0
-22 -23 99 0
-22 -23 25 0
22 23 -32 0
22 23 -99 0
22 23 -25 0
22 -25 -32 -99 0
-22 25 32 99 0
21 -30 -76 0
21 -23 -30 0
21 -23 -76 0
-21 30 76 0
-21 23 30 0
-21 23 76 0
-20 -21 30 0
-20 -21 76 0
-20 -21 23 0
20 21 -30 0
20 21 -76 0
20 21 -23 0
20 -23 -30 -76 0
-20 23 30 76 0
19 -29 -101 0
19 -21 -29 0
19 -21 -101 0
-19 29 101 0
-19 21 29 0
-19 21 101 0
19 -29 0
19 -101 0
19 -21 0
-21 -29 -101 0
-28 72 -103 0
-19 -28 72 0
-19 72 -103 0
28 -72 103 0
19 28 -72 0
19 -72 103 0
-28 72 0
72 -103 0
-19 72 0
-19 -28 -103 0
-26 78 -106 0
-26 -72 78 0
-72 78 -106 0
26 -78 106 0
26 72 -78 0
72 -78 106 0
-26 78 0
78 -106 0
-72 78 0
-26 -72 -106 0
-27 91 -110 0
-27 -78 91 0
-78 91 -110 0
27 -91 110 0
27 78 -91 0
78 -91 110 0
-27 91 0
91 -110 0
-78 91 0
-27 -78 -110 0
-91 -114 0
91 -114 0
-91 114 0
-18 -53 0
-18 -99 0
18 53 99 0
-17 53 99 0
-17 -53 -99 0
17 -53 99 0
17 53 -99 0
-16 18 0
-16 -38 0
16 -18 38 0
-15 -18 38 0
-15 18 -38 0
15 18 38 0
15 -18 -38 0
-14 16 0
-14 -36 0
14 -16 36 0
-13 -16 36 0
-13 16 -36 0
13 16 36 0
13 -16 -36 0
-12 14 0
-12 -24 0
12 -14 24 0
-14 24 -82 0
14 -24 -82 0
14 24 82 0
-14 -24 82 0
12 -88 0
-22 -88 0
-12 22 88 0
-12 22 -68 0
12 -22 -68 0
12 22 68 0
-12 -22 68 0
-60 88 0
-20 -60 0
20 60 -88 0
20 -55 -88 0
-20 -55 88 0
20 55 88 0
-20 55 -88 0
-51 60 0
51 -60 0
-11 -60 0
11 60 0
-48 51 0
48 -51 0
-10 -51 0
10 51 0
-9 48 0
9 -48 0
-8 -48 0
8 48 0
-7 9 0
7 -9 0
-6 -9 0
6 9 0
-5 7 0
5 -7 0
-4 -7 0
4 7 0
-3 5 0
3 -5 0
-5 -74 0
5 74 0
62 -85 0
53 -85 0
-53 -62 85 0
53 -62 0
-53 62 0
46 -73 -99 0
46 -73 -85 0
46 -85 -99 0
-46 73 99 0
-46 73 85 0
-46 85 99 0
-46 73 0
-46 99 0
-46 85 0
73 85 99 0
-38 44 -89 0
44 -46 -89 0
-38 44 -46 0
38 -44 89 0
-44 46 89 0
38 -44 46 0
-44 89 0
38 -44 0
-44 46 0
38 46 89 0
-36 41 -86 0
41 -44 -86 0
-36 41 -44 0
36 -41 86 0
-41 44 86 0
36 -41 44 0
-41 86 0
36 -41 0
-41 44 0
36 44 86 0
2 -24 -54 0
2 -41 -54 0
2 -24 -41 0
-2 24 54 0
-2 41 54 0
-2 24 41 0
2 -54 0
2 -24 0
2 -41 0
-24 -41 -54 0
1 -22 -40 0
1 -2 -40 0
1 -2 -22 0
-1 22 40 0
-1 2 40 0
-1 2 22 0
1 -40 0
1 -22 0
1 -2 0
-2 -22 -40 0
-20 -93 0
-1 -93 0
-1 -20 0
1 20 93 0
